p cnf 17 25
2 -7 -15 -3 0
2 -9 -15 -3 0
-2 3 0
-2 15 0
-2 7 9 0
3 8 10 -4 0
-3 4 0
-3 -10 0
-3 -8 0
4 11 12 -13 -14 0
-4 -11 0
-4 14 0
-4 13 0
-4 -12 0
5 -3 -6 0
-5 3 0
-5 6 0
-6 -7 16 0
-6 7 15 0
-6 -7 9 0
6 7 -15 0
6 -7 -9 -16 0
-17 0
2 0
5 0

